222                                     
   1.0000000000000000     
     6.2232152248508843    0.0000000000000000    0.0000000000000000
    -3.1054843164098265    5.3929858814589702    0.0000000000000000
     0.0000000000000000    0.0000000000000000   11.0971939995785736
   H 
   192
Direct
  0.2342404115476318  0.4051454247859100  0.0549286860165388
  0.8740316606417471  0.1286364986341606  0.5737400506544926
  0.5038774119531311  0.1796786585191269  0.5539395519369013
  0.0099085206479368  0.4097291171457664  0.5680020348643419
  0.5894943777917181  0.0459027611013235  0.5781953469979956
  0.8448510366127683  0.5157516937452832  0.6950646253456436
  0.9232297026771445  0.4587232735040230  0.7037450474450078
  0.6213555475095587  0.3759723584157743  0.6762652115622609
  0.5703299032796116  0.2461223138704937  0.6960647055717122
  0.8402734177397322  0.2400952838816877  0.6819959489210423
  0.7912776088189363  0.3267745040760536  0.5462450692696686
  0.7040980687473255  0.1604998149098614  0.6717983745558478
  0.7087256062656474  0.1732277097965188  0.9537527233340091
  0.6259731372145684  0.3713641579696026  0.9262667641003168
  0.9961163863118059  0.3203145730989823  0.9460570866877547
  0.4900958813017847  0.0902707790537787  0.9319987736827047
  0.9105163551729520  0.4541041832403544  0.9218027545649079
  0.6551571226542278  0.9842624177850016  0.8049370285562171
  0.5767570785736816  0.0412637466165275  0.7962442636974388
  0.8786479659538529  0.1240253107495052  0.8237308579907343
  0.9296627560731675  0.2538752472659624  0.8039377992137718
  0.7657493992546841  0.0948509863014412  0.9450719534069284
  0.6597311687881582  0.2598966573824488  0.8180057556500975
  0.7342461217518539  0.4051442100239290  0.5549302306439033
  0.6597310476752235  0.2598965175527176  0.3180079730866129
  0.8740271923864337  0.1286345337199081  0.0737379481913353
  0.5038791529346216  0.1796852327558549  0.0539418628850059
  0.0099152335639062  0.4097249534385285  0.0680065122413439
  0.5894846003644165  0.0458959365136261  0.0781900288504332
  0.8448447959865331  0.5157512391458097  0.1950748450515178
  0.9232318224118006  0.4587257441964939  0.2037373427645107
  0.6213487270802109  0.3759654431044722  0.1762616553414493
  0.5703313063886216  0.2461226179648910  0.1960676134950811
  0.8402672112743654  0.2400855427652600  0.1820071025705866
  0.7959046690700073  0.3395118736687004  0.3281986556450675
  0.7041011915880619  0.1605014745045238  0.1717850102279550
  0.7087228528008618  0.1732240277622430  0.4537466302995491
  0.6259707849076702  0.3713655218698337  0.4262679152410285
  0.9961208877694422  0.3203212746509054  0.4460582245102359
  0.4900923223358828  0.0902697144370750  0.4319972770857277
  0.9105078535525561  0.4541020178548055  0.4218018345458089
  0.6551504060728578  0.9842603422116651  0.3049444606063010
  0.5767608880667676  0.0412695249604588  0.2962385040405138
  0.8786425914419543  0.1240196377301249  0.3237236334079300
  0.9296720922760635  0.2538811183885250  0.3039424587722251
  0.7657528102439510  0.0948511999492987  0.4450738059075006
  0.7912831874364409  0.3267808897376587  0.0462474659362764
  0.7959029610346680  0.3395161763789521  0.8282014101368996
  0.7912776836377990  0.8267772607628848  0.0462452710333650
  0.8740272604777304  0.6286347494568947  0.5737301011856210
  0.5038794199320662  0.6796773498705992  0.5539440996662945
  0.0099175459222479  0.9097326725862708  0.5679988130983240
  0.5895005470703917  0.5458962842224729  0.5781989293261884
  0.8448487576479325  0.0157397350517830  0.6950615247164859
  0.9232413496089759  0.9587320315706934  0.7037593830132000
  0.6213586611104503  0.8759755888596030  0.6762692975244772
  0.5703326285500642  0.7461237835551183  0.6960626917644771
  0.8402710326077838  0.7401018657754398  0.6819889033108086
  0.7912846737686525  0.8267826501833169  0.5462571230341452
  0.7040957041879572  0.6604937564531806  0.6718034437225500
  0.7087255364166827  0.6732252133955913  0.9537536170920663
  0.6259742050922354  0.8713626101155362  0.9262666337240248
  0.9961293500002512  0.8203316880440910  0.9460642105902588
  0.4900959336731214  0.5902710864105993  0.9319941594075829
  0.9104992615555857  0.9541029351411743  0.9217979212032837
  0.6551516296544849  0.4842507374260355  0.8049298640903052
  0.5767651842886965  0.5412724158408370  0.7962527720465283
  0.8786442256530463  0.6240267855490352  0.8237335904965620
  0.9296718898269496  0.7538752135264649  0.8039353936570464
  0.7657514807349879  0.5948516760556588  0.9450672951018082
  0.7342441857952550  0.9051429684835851  0.0549380155697416
  0.7342401600171707  0.9051449524318055  0.5549249268131594
  0.6597306334855548  0.7599088843553714  0.3179979081018695
  0.8740282152303820  0.6286305570229210  0.0737423988438619
  0.5038656555616284  0.6796736947424353  0.0539266245501658
  0.0099055848919486  0.9097289925330707  0.0680042745168996
  0.5894847386850514  0.5459014775894622  0.0781998571161262
  0.8448440513514530  0.0157383095970817  0.1950664950945230
  0.9232385867507451  0.9587294926663005  0.2037514274240378
  0.6213547107545045  0.8759822825834458  0.1762790718242956
  0.5703294512684817  0.7461205564525012  0.1960572344672175
  0.8402700326282911  0.7401024528176552  0.1819938917885581
  0.7958989021126087  0.8394955959279663  0.3282097834641915
  0.7040955967286945  0.6604912133927912  0.1718008136616417
  0.7087196692888962  0.6732196982576140  0.4537669713028772
  0.6259708057226544  0.8713598150195790  0.4262599000097637
  0.9961243525319993  0.8203189989325107  0.4460630386639263
  0.4900926633823428  0.5902772969474127  0.4319977841491082
  0.9105144595637233  0.9541000129439658  0.4218052006783642
  0.6551457523001042  0.4842418183325443  0.3049296067844087
  0.5767696117457272  0.5412746663379716  0.2962566407765154
  0.8786475201480284  0.6240269661415048  0.3237308645575209
  0.9296722614189933  0.7538786949327001  0.3039360146425347
  0.7657548734111038  0.5948602548889225  0.4450561552085177
  0.7342446887562141  0.4051459644433619  0.0549297660010506
  0.2959037923617961  0.8395079599695329  0.8282046176650791
  0.1597327008051007  0.7598969316068326  0.8180025466175568
  0.2912782714363190  0.3267801004500396  0.5462319048383851
  0.3740264171196499  0.1286387394094400  0.5737350782152423
  0.0038781060999700  0.1796789528861683  0.5539360827693935
  0.5098997566645461  0.4097289163964152  0.5680053367276960
  0.0894888562908559  0.0459003736339846  0.5782006867861355
  0.3448584938348048  0.5157585217574412  0.6950625690220525
  0.4232217841344514  0.4587162327999977  0.7037547187264497
  0.1213640401601049  0.3759789474935419  0.6762770783954285
  0.0703190938004187  0.2461153151605177  0.6960575275127504
  0.2342477756363147  0.4051429154060712  0.5549430246751111
  0.3402722299953008  0.2400933328939902  0.6819999477519003
  0.2657436630251576  0.0948462919733828  0.9450648222259062
  0.2087295815584670  0.1732290621603940  0.9537601266096674
  0.1259692561333603  0.3713663515807320  0.9262651812407197
  0.4961195529022437  0.3203203771600805  0.9460595493293670
  0.9900958100238468  0.0902696132192160  0.9319974875879681
  0.4105037549616032  0.4541007236569091  0.9218062409951739
  0.1551514714781619  0.9842448446458611  0.8049196472105602
  0.0767742423228291  0.0412812302394892  0.7962647457706281
  0.3786467326302795  0.1240277536544726  0.8237321145956116
  0.2041010734132202  0.1605083440493566  0.6717935477116495
  0.4296771015971665  0.2538807124368160  0.8039381141497355
  0.2958991881891435  0.3394999952559513  0.3282100024901327
  0.4296684097531681  0.2538736216374525  0.3039337854185523
  0.2912844322092211  0.3267856246599722  0.0462528354019769
  0.3740225533474619  0.1286281254677566  0.0737285982461656
  0.0038761693766203  0.1796789646075740  0.0539382487500184
  0.5099189055615027  0.4097317188191408  0.0680020627985222
  0.0894928928091998  0.0458976612209426  0.0781943135198810
  0.3448459570230964  0.5157396517622811  0.1950649114724061
  0.4232380052680832  0.4587286992310606  0.2037533524218826
  0.1213507340215723  0.3759761848368522  0.1762795835090787
  0.0703283616618576  0.2461164091328517  0.1960560885645204
  0.1597305635470014  0.2599066320604644  0.3179963464341726
  0.3402701801339930  0.2401025744826110  0.1819957690561093
  0.2657576379025741  0.0948545219665542  0.4450744456252088
  0.2087117755956344  0.1732149214154386  0.4537438175190644
  0.1259746599220908  0.3713667071533352  0.4262678141169625
  0.4961196644278847  0.3203198147087004  0.4460605055281971
  0.9900828840465303  0.0902741780984892  0.4319920566621733
  0.4105137981534560  0.4541069586824152  0.4218028791037375
  0.1551506358246533  0.9842489020476588  0.3049286571881418
  0.0767644616096820  0.0412701181476784  0.2962547265310689
  0.3786485141531645  0.1240291499961900  0.3237370504378919
  0.2040995068384316  0.1604914868894115  0.1717955732165900
  0.1597282146769108  0.2599133884197579  0.8179952315854757
  0.2958982342190760  0.3394912961684384  0.8282103112331045
  0.2342375566508390  0.9051358026964960  0.0549400243673432
  0.3740261419271927  0.6286412645521386  0.5737298788569327
  0.0038794497702172  0.6796787331558835  0.5539395847858333
  0.5099131491507863  0.9097313456273677  0.5680093296489026
  0.0894967839746367  0.5458963245047223  0.5781987887204819
  0.3448519499481940  0.0157550607797110  0.6950644501004465
  0.4232272831738595  0.9587225474703985  0.7037469450725250
  0.1213575515657882  0.8759731604680484  0.6762668430403092
  0.0703253943547308  0.7461209614323977  0.6960620535469993
  0.3402705500168633  0.7400919797644204  0.6820016073257578
  0.2912826260548508  0.8267800632386239  0.5462440489456323
  0.2040985489906026  0.6605047999769260  0.6717946372647415
  0.2087144236327752  0.6732123207483242  0.9537511419997570
  0.1259690953973391  0.8713573374165662  0.9262593936372672
  0.4961232631799668  0.8203295377294515  0.9460594344685463
  0.9900886876787865  0.5902746065033873  0.9319956387764468
  0.4105002120123031  0.9541031886634814  0.9218051335993991
  0.1551542903704161  0.4842560075870702  0.8049417410231118
  0.0767657845687202  0.5412688866054898  0.7962412191572371
  0.3786456438883856  0.6240241336239285  0.8237278011307463
  0.4296718616927905  0.7538802100065214  0.8039418519069085
  0.2657651756591419  0.5948582642256770  0.9450714529524452
  0.2342471603022599  0.9051451791720082  0.5549333083732679
  0.2959016571321348  0.8395118350032079  0.3282056380100123
  0.1597322048420459  0.7598970448056767  0.3180020398679125
  0.2912847254948565  0.8267853187694311  0.0462359186744516
  0.3740320361614327  0.6286365527535772  0.0737526538613255
  0.0038723182243996  0.6796814741841662  0.0539320292397490
  0.5099065834071822  0.9097198563047482  0.0680109892009531
  0.0894836518833926  0.5458986281918146  0.0781938420007026
  0.3448547787859219  0.0157612527494503  0.1950662397607854
  0.4232270108907144  0.9587226364843361  0.2037433580326868
  0.1213585965011814  0.8759732743564138  0.1762748344850995
  0.0703215749220460  0.7461140372918360  0.1960572966664910
  0.3402706181077059  0.7400929653908632  0.1820087701394839
  0.2041033648610453  0.6605041654295828  0.1717853981452565
  0.2657596075680456  0.5948575516382087  0.4450642967536521
  0.2087164653588657  0.6732156508577456  0.4537551682204623
  0.1259729369318694  0.8713670580738181  0.4262613314710482
  0.4961269503196262  0.8203293651920981  0.4460629892876577
  0.9900928648824143  0.5902707124185893  0.4319977673703886
  0.4105091272585771  0.9541003747434351  0.4218062427975972
  0.1551489288946440  0.4842572561681125  0.3049437478882710
  0.0767644386619849  0.5412720179998777  0.2962391010257013
  0.3786473522270024  0.6240202309782734  0.3237234919551902
  0.4296675591355966  0.7538787798260788  0.3039442844723500
  0.6597259210089016  0.7599066482776630  0.8180069049684164
  0.7959018830225837  0.8394957998884581  0.8281971727147539

 -0.29959087E-03 -0.61290234E-02  0.13099935E-02
  0.13143374E-01 -0.45095404E-02  0.60911314E-02
 -0.53298402E-02  0.21539737E-02 -0.32644725E-02
  0.63590800E-02  0.41626617E-02  0.37755871E-02
 -0.39232470E-02 -0.47014135E-02 -0.53370283E-02
  0.51559200E-02  0.33202093E-02 -0.13122227E-02
 -0.71498024E-02 -0.33432354E-02  0.15984473E-02
  0.10463528E-01 -0.91308678E-02 -0.60892428E-02
 -0.45215829E-02  0.35432181E-02  0.32691934E-02
 -0.43575228E-03 -0.75894237E-02 -0.37725556E-02
 -0.67813801E-03  0.78686665E-02 -0.16087675E-02
  0.21162112E-02  0.57434138E-02  0.53272214E-02
  0.68007395E-03 -0.78700924E-02  0.16053500E-02
 -0.13139725E-01  0.45112268E-02 -0.60901704E-02
  0.53254822E-02 -0.21602301E-02  0.32614883E-02
 -0.63581938E-02 -0.41651774E-02 -0.37726519E-02
  0.39295217E-02  0.47045983E-02  0.53355634E-02
 -0.51527194E-02 -0.33118357E-02  0.13150745E-02
  0.71412443E-02  0.33405747E-02 -0.16059120E-02
 -0.10459380E-01  0.91284438E-02  0.60874032E-02
  0.45194121E-02 -0.35399291E-02 -0.32691787E-02
  0.29055225E-03  0.61311609E-02 -0.13088693E-02
  0.43943263E-03  0.75867465E-02  0.37780268E-02
 -0.29174544E-03 -0.61309822E-02  0.13098266E-02
  0.43978471E-03  0.75845805E-02  0.37809603E-02
  0.13139545E-01 -0.45101660E-02  0.60921941E-02
 -0.53318800E-02  0.21543004E-02 -0.32646775E-02
  0.63624190E-02  0.41644280E-02  0.37809165E-02
 -0.39280711E-02 -0.47088486E-02 -0.53411021E-02
  0.51529347E-02  0.33198479E-02 -0.13069981E-02
 -0.71457409E-02 -0.33416982E-02  0.15933941E-02
  0.10461615E-01 -0.91262387E-02 -0.60882801E-02
 -0.45232625E-02  0.35361237E-02  0.32748507E-02
 -0.43406322E-03 -0.75913584E-02 -0.37677320E-02
 -0.21177735E-02 -0.57386929E-02 -0.53304789E-02
  0.21168823E-02  0.57422533E-02  0.53178066E-02
  0.68020640E-03 -0.78711331E-02  0.16039204E-02
 -0.13137803E-01  0.45133323E-02 -0.60882614E-02
  0.53280120E-02 -0.21554977E-02  0.32585930E-02
 -0.63558551E-02 -0.41647719E-02 -0.37768189E-02
  0.39261144E-02  0.47100455E-02  0.53327601E-02
 -0.51561480E-02 -0.33164394E-02  0.13211983E-02
  0.71416699E-02  0.33407664E-02 -0.16130537E-02
 -0.10460912E-01  0.91263321E-02  0.60785671E-02
  0.45225632E-02 -0.35373074E-02 -0.32665911E-02
  0.29337724E-03  0.61288031E-02 -0.13079238E-02
 -0.68046986E-03  0.78746346E-02 -0.16074920E-02
 -0.21171966E-02 -0.57375284E-02 -0.53288072E-02
 -0.68109587E-03  0.78707693E-02 -0.16063768E-02
  0.13138805E-01 -0.45105142E-02  0.60846206E-02
 -0.53236474E-02  0.21540151E-02 -0.32594240E-02
  0.63646354E-02  0.41673516E-02  0.37740762E-02
 -0.39194649E-02 -0.47026187E-02 -0.53314550E-02
  0.51518081E-02  0.33170380E-02 -0.13186632E-02
 -0.71366949E-02 -0.33400852E-02  0.16141468E-02
  0.10457877E-01 -0.91256446E-02 -0.60858338E-02
 -0.45206227E-02  0.35403423E-02  0.32689362E-02
 -0.43594560E-03 -0.75834278E-02 -0.37822012E-02
 -0.68022859E-03  0.78746050E-02 -0.15996237E-02
  0.21158401E-02  0.57361427E-02  0.53310752E-02
  0.67944777E-03 -0.78739240E-02  0.16086749E-02
 -0.13139524E-01  0.45113768E-02 -0.60901298E-02
  0.53276096E-02 -0.21496841E-02  0.32648979E-02
 -0.63579492E-02 -0.41672494E-02 -0.37795509E-02
  0.39236588E-02  0.47054825E-02  0.53322514E-02
 -0.51539005E-02 -0.33197454E-02  0.13114712E-02
  0.71435717E-02  0.33409980E-02 -0.16050250E-02
 -0.10461191E-01  0.91271335E-02  0.60893080E-02
  0.45240006E-02 -0.35367768E-02 -0.32688850E-02
  0.29134402E-03  0.61317710E-02 -0.13080697E-02
 -0.29720419E-03 -0.61323194E-02  0.13161252E-02
 -0.29447632E-03 -0.61325654E-02  0.13037280E-02
  0.43536806E-03  0.75895835E-02  0.37676864E-02
  0.13144107E-01 -0.45105553E-02  0.60904483E-02
 -0.53335018E-02  0.21524564E-02 -0.32670539E-02
  0.63591961E-02  0.41629451E-02  0.37796946E-02
 -0.39262266E-02 -0.47041095E-02 -0.53316925E-02
  0.51514490E-02  0.33176339E-02 -0.13143249E-02
 -0.71391225E-02 -0.33401342E-02  0.16076781E-02
  0.10457188E-01 -0.91252455E-02 -0.60790233E-02
 -0.45219797E-02  0.35353862E-02  0.32654590E-02
 -0.44056112E-03 -0.75869026E-02 -0.37769360E-02
 -0.21143674E-02 -0.57446083E-02 -0.53223757E-02
  0.21164662E-02  0.57399391E-02  0.53265106E-02
  0.68170869E-03 -0.78759217E-02  0.16152408E-02
 -0.13135997E-01  0.45097442E-02 -0.60950308E-02
  0.53291484E-02 -0.21548625E-02  0.32696498E-02
 -0.63574416E-02 -0.41650779E-02 -0.37767837E-02
  0.39294270E-02  0.47016524E-02  0.53389380E-02
 -0.51546063E-02 -0.33234586E-02  0.13107119E-02
  0.71481280E-02  0.33436634E-02 -0.15995776E-02
 -0.10458408E-01  0.91309546E-02  0.60869653E-02
  0.45236217E-02 -0.35348108E-02 -0.32686800E-02
  0.28448484E-03  0.61354607E-02 -0.13152166E-02
 -0.28725698E-03 -0.61322773E-02  0.13077523E-02
 -0.21189667E-02 -0.57398410E-02 -0.53264014E-02
  0.43977272E-03  0.75829304E-02  0.37770945E-02
 -0.67971477E-03  0.78717354E-02 -0.16165943E-02
  0.13139214E-01 -0.45095143E-02  0.60873386E-02
 -0.53322754E-02  0.21522013E-02 -0.32661832E-02
  0.63541940E-02  0.41648775E-02  0.37745510E-02
 -0.39256163E-02 -0.47017972E-02 -0.53345471E-02
  0.51526386E-02  0.33194668E-02 -0.13165673E-02
 -0.71439962E-02 -0.33481316E-02  0.16102344E-02
  0.10465056E-01 -0.91298916E-02 -0.60785620E-02
 -0.45261615E-02  0.35358880E-02  0.32661094E-02
 -0.29329209E-03 -0.61309315E-02  0.13181459E-02
 -0.43419624E-03 -0.75877884E-02 -0.37754180E-02
  0.29090160E-03  0.61287412E-02 -0.13123999E-02
  0.68210389E-03 -0.78662070E-02  0.16143449E-02
 -0.13138822E-01  0.45121744E-02 -0.60889570E-02
  0.53299166E-02 -0.21536245E-02  0.32653475E-02
 -0.63564981E-02 -0.41676341E-02 -0.37757908E-02
  0.39227314E-02  0.46998465E-02  0.53391178E-02
 -0.51475740E-02 -0.33230041E-02  0.13068026E-02
  0.71443799E-02  0.33453889E-02 -0.15981415E-02
 -0.10462301E-01  0.91309767E-02  0.60849616E-02
  0.21152143E-02  0.57432083E-02  0.53271022E-02
  0.45249115E-02 -0.35405891E-02 -0.32689579E-02
 -0.21184622E-02 -0.57461965E-02 -0.53198992E-02
  0.45238586E-02 -0.35371902E-02 -0.32711918E-02
 -0.67771396E-03  0.78732311E-02 -0.16022519E-02
  0.13139338E-01 -0.45138169E-02  0.60841960E-02
 -0.53309898E-02  0.21518006E-02 -0.32631316E-02
  0.63612546E-02  0.41682896E-02  0.37751949E-02
 -0.39239796E-02 -0.46986543E-02 -0.53370086E-02
  0.51505574E-02  0.33160613E-02 -0.13131400E-02
 -0.71374237E-02 -0.33413192E-02  0.16116915E-02
  0.10460289E-01 -0.91253195E-02 -0.60799494E-02
 -0.45192306E-02  0.35313451E-02  0.32656433E-02
  0.43821945E-03  0.75898128E-02  0.37712041E-02
 -0.43912580E-03 -0.75843594E-02 -0.37779563E-02
  0.29610475E-03  0.61309711E-02 -0.13029203E-02
  0.67715119E-03 -0.78726265E-02  0.16006841E-02
 -0.13137643E-01  0.45134699E-02 -0.60875944E-02
  0.53282446E-02 -0.21528584E-02  0.32634418E-02
 -0.63633941E-02 -0.41647914E-02 -0.37791395E-02
  0.39288013E-02  0.47115334E-02  0.53375648E-02
 -0.51466061E-02 -0.33220432E-02  0.13124353E-02
  0.71389069E-02  0.33431001E-02 -0.16036227E-02
 -0.10461753E-01  0.91317197E-02  0.60893628E-02
  0.21136982E-02  0.57386362E-02  0.53252371E-02
  0.43249945E-03  0.75940710E-02  0.37674430E-02
 -0.21133771E-02 -0.57471287E-02 -0.53229086E-02
 -0.29227311E-03 -0.61347866E-02  0.13141012E-02
  0.13131726E-01 -0.45109983E-02  0.60861463E-02
 -0.53301888E-02  0.21520481E-02 -0.32614616E-02
  0.63587996E-02  0.41651111E-02  0.37811159E-02
 -0.39250850E-02 -0.47016016E-02 -0.53330774E-02
  0.51543572E-02  0.33204758E-02 -0.13129598E-02
 -0.71468617E-02 -0.33471141E-02  0.16025205E-02
  0.10461464E-01 -0.91283255E-02 -0.60879110E-02
 -0.45277963E-02  0.35371407E-02  0.32700223E-02
 -0.43441436E-03 -0.75888180E-02 -0.37708657E-02
 -0.67964260E-03  0.78719290E-02 -0.16117680E-02
  0.21111729E-02  0.57447688E-02  0.53254771E-02
  0.67892000E-03 -0.78786772E-02  0.16041647E-02
 -0.13136142E-01  0.45122170E-02 -0.60920912E-02
  0.53289343E-02 -0.21501683E-02  0.32607152E-02
 -0.63631995E-02 -0.41647610E-02 -0.37787374E-02
  0.39204490E-02  0.47027923E-02  0.53370362E-02
 -0.51543551E-02 -0.33164722E-02  0.13176994E-02
  0.71452906E-02  0.33428919E-02 -0.16131194E-02
 -0.10460974E-01  0.91274915E-02  0.60832552E-02
  0.45210376E-02 -0.35369609E-02 -0.32655001E-02
  0.29264669E-03  0.61346295E-02 -0.13069049E-02
 -0.28972923E-03 -0.61330935E-02  0.13099914E-02
 -0.21187162E-02 -0.57385770E-02 -0.53269143E-02
  0.44110186E-03  0.75853526E-02  0.37732405E-02
 -0.67759461E-03  0.78729917E-02 -0.16164965E-02
  0.13143992E-01 -0.45082462E-02  0.60944662E-02
 -0.53385934E-02  0.21494203E-02 -0.32650571E-02
  0.63590646E-02  0.41626129E-02  0.37840284E-02
 -0.39283862E-02 -0.47020936E-02 -0.53429672E-02
  0.51553889E-02  0.33228841E-02 -0.13139739E-02
 -0.71497593E-02 -0.33470270E-02  0.15960012E-02
  0.10462979E-01 -0.91300298E-02 -0.60840519E-02
 -0.45242330E-02  0.35357164E-02  0.32672025E-02
 -0.43514748E-03 -0.75895323E-02 -0.37636630E-02
  0.21189901E-02  0.57482894E-02  0.53189865E-02
  0.29313828E-03  0.61349114E-02 -0.13102001E-02
  0.68398604E-03 -0.78761448E-02  0.16067334E-02
 -0.13138333E-01  0.45148604E-02 -0.60913416E-02
  0.53262265E-02 -0.21551954E-02  0.32658490E-02
 -0.63579337E-02 -0.41694396E-02 -0.37750097E-02
  0.39253629E-02  0.46987831E-02  0.53381704E-02
 -0.51544515E-02 -0.33171696E-02  0.13217156E-02
  0.71406951E-02  0.33423483E-02 -0.16156674E-02
 -0.10457888E-01  0.91244939E-02  0.60804033E-02
  0.45194028E-02 -0.35319038E-02 -0.32655709E-02
  0.43387293E-03  0.75893903E-02  0.37752355E-02
 -0.21156852E-02 -0.57454687E-02 -0.53292741E-02

           1
   1.0000000000000000     
  0.10000000E+01  0.00000000E+00  0.00000000E+00  0.00000000E+00
  0.23362515E+00  0.40400894E+00  0.55046733E-01
  0.87572638E+00  0.12780031E+00  0.57428894E+00
  0.50322028E+00  0.18007806E+00  0.55364538E+00
  0.11315526E-01  0.41050098E+00  0.56834226E+00
  0.58842893E+00  0.45030997E-01  0.57771441E+00
  0.84598676E+00  0.51636735E+00  0.69494638E+00
  0.92177146E+00  0.45810335E+00  0.70388909E+00
  0.62219203E+00  0.37427926E+00  0.67571649E+00
  0.56993119E+00  0.24677932E+00  0.69635930E+00
  0.83950114E+00  0.23868801E+00  0.68165599E+00
  0.79189673E+00  0.32823356E+00  0.54610010E+00
  0.70496956E+00  0.16156479E+00  0.67227843E+00
  0.70810666E+00  0.17176839E+00  0.95389739E+00
  0.62427916E+00  0.37220066E+00  0.92571796E+00
  0.99677224E+00  0.31991401E+00  0.94635099E+00
  0.48868879E+00  0.89498447E-01  0.93165881E+00
  0.91158310E+00  0.45497654E+00  0.92228356E+00
  0.65402269E+00  0.98364832E+00  0.80505553E+00
  0.57821370E+00  0.41883176E-01  0.79609955E+00
  0.87781192E+00  0.12571796E+00  0.82427941E+00
  0.93006142E+00  0.25321885E+00  0.80364320E+00
  0.76636341E+00  0.95987863E-01  0.94495401E+00
  0.66050379E+00  0.26130344E+00  0.81834620E+00
  0.73363194E+00  0.40400737E+00  0.55504826E+00
  0.66050352E+00  0.26130290E+00  0.31834869E+00
  0.87572124E+00  0.12779823E+00  0.74286933E-01
  0.50322172E+00  0.18008470E+00  0.53647673E-01
  0.11322939E-01  0.41049715E+00  0.68347221E-01
  0.58841769E+00  0.45022793E-01  0.77708727E-01
  0.84598000E+00  0.51636683E+00  0.19495707E+00
  0.92177437E+00  0.45810611E+00  0.20388093E+00
  0.62218533E+00  0.37427320E+00  0.17571302E+00
  0.56993167E+00  0.24677831E+00  0.19636272E+00
  0.83949503E+00  0.23867791E+00  0.18166758E+00
  0.79503336E+00  0.33844777E+00  0.32771831E+00
  0.70497268E+00  0.16156624E+00  0.17226421E+00
  0.70810383E+00  0.17176451E+00  0.45389116E+00
  0.62427731E+00  0.37220241E+00  0.42571928E+00
  0.99677759E+00  0.31992159E+00  0.44635187E+00
  0.48868564E+00  0.89497457E-01  0.43165694E+00
  0.91157456E+00  0.45497538E+00  0.42228238E+00
  0.65401500E+00  0.98364539E+00  0.30506352E+00
  0.57821760E+00  0.41888990E-01  0.29609315E+00
  0.87780611E+00  0.12571190E+00  0.32427139E+00
  0.93007151E+00  0.25322521E+00  0.30364810E+00
  0.76636705E+00  0.95987640E-01  0.44495595E+00
  0.79190249E+00  0.32824105E+00  0.46102610E-01
  0.79503185E+00  0.33845229E+00  0.82772122E+00
  0.79189653E+00  0.82823671E+00  0.46100516E-01
  0.87572116E+00  0.62779838E+00  0.57427840E+00
  0.50322328E+00  0.68007676E+00  0.55365038E+00
  0.11325878E-01  0.91050541E+00  0.56833891E+00
  0.58843560E+00  0.54502430E+00  0.57771850E+00
  0.84598352E+00  0.16354800E-01  0.69494270E+00
  0.92178550E+00  0.95811269E+00  0.70390484E+00
  0.62219472E+00  0.87428346E+00  0.67572089E+00
  0.56993381E+00  0.74678026E+00  0.69635726E+00
  0.83949928E+00  0.73869570E+00  0.68164808E+00
  0.79190401E+00  0.82824281E+00  0.54611298E+00
  0.70496646E+00  0.66155739E+00  0.67228384E+00
  0.70810614E+00  0.67176518E+00  0.95389858E+00
  0.62428027E+00  0.87219914E+00  0.92571783E+00
  0.99678652E+00  0.81993308E+00  0.94635842E+00
  0.48868869E+00  0.58949837E+00  0.93165357E+00
  0.91156515E+00  0.95497545E+00  0.92227843E+00
  0.65401628E+00  0.48363517E+00  0.80504804E+00
  0.57822222E+00  0.54189192E+00  0.79610814E+00
  0.87780777E+00  0.62571919E+00  0.82428232E+00
  0.93007159E+00  0.75321940E+00  0.80364083E+00
  0.76636567E+00  0.59598867E+00  0.94494942E+00
  0.73362900E+00  0.90400588E+00  0.55056615E-01
  0.73362539E+00  0.90400782E+00  0.55504241E+00
  0.66050286E+00  0.76131619E+00  0.31833743E+00
  0.87572296E+00  0.62779418E+00  0.74291227E-01
  0.50320779E+00  0.68007282E+00  0.53632221E-01
  0.11312635E-01  0.91050091E+00  0.68344874E-01
  0.58841856E+00  0.54502921E+00  0.77719403E-01
  0.84597881E+00  0.16353485E-01  0.19494806E+00
  0.92178235E+00  0.95811014E+00  0.20389630E+00
  0.62219070E+00  0.87429022E+00  0.17573127E+00
  0.56992995E+00  0.74677611E+00  0.19635149E+00
  0.83949722E+00  0.73869564E+00  0.18165354E+00
  0.79502760E+00  0.83843040E+00  0.32773017E+00
  0.70496681E+00  0.66155555E+00  0.17228080E+00
  0.70810045E+00  0.67175930E+00  0.45391253E+00
  0.62427729E+00  0.87219604E+00  0.42571066E+00
  0.99678130E+00  0.81991943E+00  0.44635768E+00
  0.48868570E+00  0.58950498E+00  0.43165745E+00
  0.91158092E+00  0.95497182E+00  0.42228631E+00
  0.65400994E+00  0.48362556E+00  0.30504772E+00
  0.57822763E+00  0.54189467E+00  0.29611250E+00
  0.87781187E+00  0.62572008E+00  0.32427938E+00
  0.93007208E+00  0.75322325E+00  0.30364146E+00
  0.76636830E+00  0.59599793E+00  0.44493764E+00
  0.73363111E+00  0.40400888E+00  0.55047611E-01
  0.29503219E+00  0.83844364E+00  0.82772464E+00
  0.16050502E+00  0.76130300E+00  0.81834291E+00
  0.29189743E+00  0.32823973E+00  0.54608623E+00
  0.37572047E+00  0.12780256E+00  0.57428363E+00
  0.32204144E-02  0.18007803E+00  0.55364176E+00
  0.51130618E+00  0.41050119E+00  0.56834547E+00
  0.88422994E-01  0.45028538E-01  0.57771998E+00
  0.34599362E+00  0.51637404E+00  0.69494393E+00
  0.42176402E+00  0.45809540E+00  0.70389982E+00
  0.12220086E+00  0.37428603E+00  0.67572932E+00
  0.69918969E-01  0.24677096E+00  0.69635185E+00
  0.23363335E+00  0.40400608E+00  0.55506181E+00
  0.33950036E+00  0.23868636E+00  0.68165973E+00
  0.26635750E+00  0.95982720E-01  0.94494656E+00
  0.20811132E+00  0.17177046E+00  0.95390560E+00
  0.12427551E+00  0.37220303E+00  0.92571649E+00
  0.49677673E+00  0.31992104E+00  0.94635380E+00
  0.98868876E+00  0.89496825E-01  0.93165724E+00
  0.41156897E+00  0.45497220E+00  0.92228736E+00
  0.15401684E+00  0.98362867E+00  0.80503741E+00
  0.78231814E-01  0.41901552E-01  0.79612073E+00
  0.37781045E+00  0.12572087E+00  0.82428045E+00
  0.20497239E+00  0.16157328E+00  0.67227359E+00
  0.43007659E+00  0.25322420E+00  0.80364354E+00
  0.29502708E+00  0.33843450E+00  0.32773061E+00
  0.43006804E+00  0.25321773E+00  0.30363901E+00
  0.29190405E+00  0.32824553E+00  0.46108452E-01
  0.37571623E+00  0.12779115E+00  0.74276863E-01
  0.32186472E-02  0.18007796E+00  0.53644199E-01
  0.51132678E+00  0.41050463E+00  0.68342256E-01
  0.88427585E-01  0.45026408E-01  0.77713380E-01
  0.34598043E+00  0.51635454E+00  0.19494658E+00
  0.42178193E+00  0.45810913E+00  0.20389859E+00
  0.12218721E+00  0.37428411E+00  0.17573170E+00
  0.69928930E-01  0.24677121E+00  0.19635037E+00
  0.16050327E+00  0.26131398E+00  0.31833618E+00
  0.33949783E+00  0.23869624E+00  0.18165533E+00
  0.26637252E+00  0.95991364E-01  0.44495704E+00
  0.20809213E+00  0.17175513E+00  0.45388806E+00
  0.12428122E+00  0.37220362E+00  0.42571924E+00
  0.49677665E+00  0.31992062E+00  0.44635458E+00
  0.98867499E+00  0.89501917E-01  0.43165151E+00
  0.41158107E+00  0.45498060E+00  0.42228386E+00
  0.15401624E+00  0.98363291E+00  0.30504692E+00
  0.78220942E-01  0.41890016E-01  0.29611022E+00
  0.37781239E+00  0.12572241E+00  0.32428578E+00
  0.20497015E+00  0.16155558E+00  0.17227545E+00
  0.16050040E+00  0.26132153E+00  0.81833473E+00
  0.29502685E+00  0.33842563E+00  0.82773065E+00
  0.23362294E+00  0.90399825E+00  0.55058442E-01
  0.37571886E+00  0.62780481E+00  0.57427832E+00
  0.32220792E-02  0.68007778E+00  0.55364569E+00
  0.51132034E+00  0.91050367E+00  0.56835006E+00
  0.88431026E-01  0.54502453E+00  0.57771821E+00
  0.34598744E+00  0.16370763E-01  0.69494614E+00
  0.42176915E+00  0.95810191E+00  0.70389135E+00
  0.12219394E+00  0.87428053E+00  0.67571824E+00
  0.69925123E-01  0.74677684E+00  0.69635672E+00
  0.33949855E+00  0.73868482E+00  0.68166180E+00
  0.29190181E+00  0.82823972E+00  0.54609881E+00
  0.20496936E+00  0.66157003E+00  0.67227453E+00
  0.20809450E+00  0.67175141E+00  0.95389570E+00
  0.12427578E+00  0.87219402E+00  0.92571042E+00
  0.49678061E+00  0.81993084E+00  0.94635327E+00
  0.98868083E+00  0.58950235E+00  0.93165513E+00
  0.41156534E+00  0.95497521E+00  0.92228607E+00
  0.15401917E+00  0.48364105E+00  0.80506048E+00
  0.78223271E-01  0.54188875E+00  0.79609586E+00
  0.37780926E+00  0.62571661E+00  0.82427598E+00
  0.43007106E+00  0.75322437E+00  0.80364759E+00
  0.26637984E+00  0.59599578E+00  0.94495368E+00
  0.23363311E+00  0.90400794E+00  0.55505136E+00
  0.29503021E+00  0.83844775E+00  0.32772561E+00
  0.16050496E+00  0.76130357E+00  0.31834206E+00
  0.29190434E+00  0.82824518E+00  0.46090252E-01
  0.37572698E+00  0.62780061E+00  0.74301844E-01
  0.32133540E-02  0.68008003E+00  0.53637806E-01
  0.51131358E+00  0.91049171E+00  0.68351979E-01