222
 1.0000000000000000
     6.2232152248508843    0.0000000000000000    0.0000000000000000
    -3.1054843164098265    5.3929858814589702    0.0000000000000000
     0.0000000000000000    0.0000000000000000   11.0971939995785736
 192
Direct
  0.2503043391835434  0.4211390097703039  0.0600943128988760
  0.8781626927101842  0.1550859486917915  0.5628419457172882
  0.5039515725912267  0.1696660096269369  0.5623351310448435
  0.9979041915397532  0.4096436599472959  0.5647491338708548
  0.6077933631243192  0.0367502552223300  0.5690655624011605
  0.8288622890388631  0.4996951013303032  0.6899056661241616
  0.9431122543801252  0.4896970911830891  0.6940826088859070
  0.5949137494338893  0.3718323221292401  0.6871584704150031
  0.5803350386370950  0.2460533141974927  0.6876646359833778
  0.8403526828482377  0.2520924063196439  0.6852508147714396
  0.7603026564274664  0.3068854562160368  0.5559172684091679
  0.7132540532096813  0.1422105402918703  0.6809343929313948
  0.7396973435725337  0.1931145437839596  0.9440827315908323
  0.6218373072898160  0.3449140513082085  0.9371580542827119
  0.9960484274087733  0.3303339903730595  0.9376648689551565
  0.5020958084602505  0.0903563400527005  0.9352508661291453
  0.8922066368756811  0.4632497447776700  0.9309344375988431
  0.6711377109611406  0.0003048986696967  0.8100943338758384
  0.5568877456198749  0.0103029088169108  0.8059173911140932
  0.9050862505661073  0.1281676778707599  0.8128415295849969
  0.9196649613629049  0.2539466858025072  0.8123353640166222
  0.7496956608164568  0.0788609902296962  0.9399056871011241
  0.6596473171517659  0.2479075936803561  0.8147491852285604
  0.7503043391835434  0.4211390097703039  0.5600943128988760
  0.6596473171517659  0.2479075936803561  0.3147491852285604
  0.8781626927101842  0.1550859486917915  0.0628419457172882
  0.5039515725912267  0.1696660096269369  0.0623351310448435
  0.9979041915397532  0.4096436599472959  0.0647491338708548
  0.6077933631243192  0.0367502552223300  0.0690655624011604
  0.8288622890388631  0.4996951013303032  0.1899056661241616
  0.9431122543801252  0.4896970911830891  0.1940826088859069
  0.5949137494338893  0.3718323221292401  0.1871584704150031
  0.5803350386370950  0.2460533141974927  0.1876646359833778
  0.8403526828482377  0.2520924063196439  0.1852508147714395
  0.7867459467903190  0.3577894597081226  0.3190656070686053
  0.7132540532096813  0.1422105402918703  0.1809343929313947
  0.7396973435725337  0.1931145437839596  0.4440827315908323
  0.6218373072898160  0.3449140513082085  0.4371580542827118
  0.9960484274087733  0.3303339903730595  0.4376648689551565
  0.5020958084602505  0.0903563400527005  0.4352508661291452
  0.8922066368756811  0.4632497447776700  0.4309344375988431
  0.6711377109611406  0.0003048986696967  0.3100943338758384
  0.5568877456198749  0.0103029088169108  0.3059173911140931
  0.9050862505661073  0.1281676778707599  0.3128415295849969
  0.9196649613629049  0.2539466858025072  0.3123353640166222
  0.7496956608164568  0.0788609902296962  0.4399056871011240
  0.7603026564274664  0.3068854562160368  0.0559172684091678
  0.7867459467903190  0.3577894597081226  0.8190656070686053
  0.7603026564274664  0.8068854562160367  0.0559172684091678
  0.8781626927101840  0.6550859486917915  0.5628419457172882
  0.5039515725912267  0.6696660096269369  0.5623351310448435
  0.9979041915397532  0.9096436599472959  0.5647491338708548
  0.6077933631243191  0.5367502552223300  0.5690655624011605
  0.8288622890388631  0.9996951013303033  0.6899056661241616
  0.9431122543801252  0.9896970911830891  0.6940826088859070
  0.5949137494338893  0.8718323221292401  0.6871584704150031
  0.5803350386370951  0.7460533141974927  0.6876646359833778
  0.8403526828482377  0.7520924063196439  0.6852508147714396
  0.7603026564274664  0.8068854562160367  0.5559172684091679
  0.7132540532096813  0.6422105402918703  0.6809343929313948
  0.7396973435725337  0.6931145437839596  0.9440827315908323
  0.6218373072898160  0.8449140513082085  0.9371580542827119
  0.9960484274087732  0.8303339903730594  0.9376648689551565
  0.5020958084602505  0.5903563400527005  0.9352508661291453
  0.8922066368756810  0.9632497447776699  0.9309344375988431
  0.6711377109611406  0.5003048986696967  0.8100943338758384
  0.5568877456198749  0.5103029088169109  0.8059173911140932
  0.9050862505661073  0.6281676778707599  0.8128415295849969
  0.9196649613629050  0.7539466858025072  0.8123353640166222
  0.7496956608164567  0.5788609902296962  0.9399056871011241
  0.7503043391835433  0.9211390097703037  0.0600943128988760
  0.7503043391835433  0.9211390097703037  0.5600943128988760
  0.6596473171517659  0.7479075936803560  0.3147491852285604
  0.8781626927101840  0.6550859486917915  0.0628419457172882
  0.5039515725912267  0.6696660096269369  0.0623351310448435
  0.9979041915397532  0.9096436599472959  0.0647491338708548
  0.6077933631243191  0.5367502552223300  0.0690655624011604
  0.8288622890388631  0.9996951013303033  0.1899056661241616
  0.9431122543801252  0.9896970911830891  0.1940826088859069
  0.5949137494338893  0.8718323221292401  0.1871584704150031
  0.5803350386370951  0.7460533141974927  0.1876646359833778
  0.8403526828482377  0.7520924063196439  0.1852508147714395
  0.7867459467903188  0.8577894597081225  0.3190656070686053
  0.7132540532096813  0.6422105402918703  0.1809343929313947
  0.7396973435725337  0.6931145437839596  0.4440827315908323
  0.6218373072898160  0.8449140513082085  0.4371580542827118
  0.9960484274087732  0.8303339903730594  0.4376648689551565
  0.5020958084602505  0.5903563400527005  0.4352508661291452
  0.8922066368756810  0.9632497447776699  0.4309344375988431
  0.6711377109611406  0.5003048986696967  0.3100943338758384
  0.5568877456198749  0.5103029088169109  0.3059173911140931
  0.9050862505661073  0.6281676778707599  0.3128415295849969
  0.9196649613629050  0.7539466858025072  0.3123353640166222
  0.7496956608164567  0.5788609902296962  0.4399056871011240
  0.7503043391835434  0.4211390097703039  0.0600943128988760
  0.2867459467903188  0.8577894597081225  0.8190656070686053
  0.1596473171517658  0.7479075936803560  0.8147491852285604
  0.2603026564274664  0.3068854562160368  0.5559172684091679
  0.3781626927101840  0.1550859486917915  0.5628419457172882
  0.0039515725912267  0.1696660096269369  0.5623351310448435
  0.4979041915397531  0.4096436599472959  0.5647491338708548
  0.1077933631243191  0.0367502552223300  0.5690655624011605
  0.3288622890388631  0.4996951013303032  0.6899056661241616
  0.4431122543801252  0.4896970911830891  0.6940826088859070
  0.0949137494338892  0.3718323221292401  0.6871584704150031
  0.0803350386370951  0.2460533141974927  0.6876646359833778
  0.2503043391835434  0.4211390097703039  0.5600943128988760
  0.3403526828482377  0.2520924063196439  0.6852508147714396
  0.2496956608164567  0.0788609902296962  0.9399056871011241
  0.2396973435725336  0.1931145437839596  0.9440827315908323
  0.1218373072898160  0.3449140513082085  0.9371580542827119
  0.4960484274087733  0.3303339903730595  0.9376648689551565
  0.0020958084602505  0.0903563400527005  0.9352508661291453
  0.3922066368756810  0.4632497447776700  0.9309344375988431
  0.1711377109611405  0.0003048986696967  0.8100943338758384
  0.0568877456198748  0.0103029088169108  0.8059173911140932
  0.4050862505661073  0.1281676778707599  0.8128415295849969
  0.2132540532096812  0.1422105402918703  0.6809343929313948
  0.4196649613629049  0.2539466858025072  0.8123353640166222
  0.2867459467903189  0.3577894597081226  0.3190656070686053
  0.4196649613629049  0.2539466858025072  0.3123353640166222
  0.2603026564274664  0.3068854562160368  0.0559172684091678
  0.3781626927101840  0.1550859486917915  0.0628419457172882
  0.0039515725912267  0.1696660096269369  0.0623351310448435
  0.4979041915397531  0.4096436599472959  0.0647491338708548
  0.1077933631243191  0.0367502552223300  0.0690655624011604
  0.3288622890388631  0.4996951013303032  0.1899056661241616
  0.4431122543801252  0.4896970911830891  0.1940826088859069
  0.0949137494338892  0.3718323221292401  0.1871584704150031
  0.0803350386370951  0.2460533141974927  0.1876646359833778
  0.1596473171517659  0.2479075936803561  0.3147491852285604
  0.3403526828482377  0.2520924063196439  0.1852508147714395
  0.2496956608164567  0.0788609902296962  0.4399056871011240
  0.2396973435725336  0.1931145437839596  0.4440827315908323
  0.1218373072898160  0.3449140513082085  0.4371580542827118
  0.4960484274087733  0.3303339903730595  0.4376648689551565
  0.0020958084602505  0.0903563400527005  0.4352508661291452
  0.3922066368756810  0.4632497447776700  0.4309344375988431
  0.1711377109611405  0.0003048986696967  0.3100943338758384
  0.0568877456198748  0.0103029088169108  0.3059173911140931
  0.4050862505661073  0.1281676778707599  0.3128415295849969
  0.2132540532096812  0.1422105402918703  0.1809343929313947
  0.1596473171517659  0.2479075936803561  0.8147491852285604
  0.2867459467903189  0.3577894597081226  0.8190656070686053
  0.2503043391835433  0.9211390097703037  0.0600943128988760
  0.3781626927101840  0.6550859486917915  0.5628419457172882
  0.0039515725912267  0.6696660096269369  0.5623351310448435
  0.4979041915397531  0.9096436599472959  0.5647491338708548
  0.1077933631243191  0.5367502552223300  0.5690655624011605
  0.3288622890388631  0.9996951013303033  0.6899056661241616
  0.4431122543801252  0.9896970911830891  0.6940826088859070
  0.0949137494338892  0.8718323221292401  0.6871584704150031
  0.0803350386370951  0.7460533141974927  0.6876646359833778
  0.3403526828482377  0.7520924063196439  0.6852508147714396
  0.2603026564274664  0.8068854562160367  0.5559172684091679
  0.2132540532096812  0.6422105402918703  0.6809343929313948
  0.2396973435725336  0.6931145437839596  0.9440827315908323
  0.1218373072898160  0.8449140513082085  0.9371580542827119
  0.4960484274087732  0.8303339903730594  0.9376648689551565
  0.0020958084602505  0.5903563400527005  0.9352508661291453
  0.3922066368756810  0.9632497447776699  0.9309344375988431
  0.1711377109611405  0.5003048986696967  0.8100943338758384
  0.0568877456198749  0.5103029088169109  0.8059173911140932
  0.4050862505661073  0.6281676778707599  0.8128415295849969
  0.4196649613629049  0.7539466858025072  0.8123353640166222
  0.2496956608164567  0.5788609902296962  0.9399056871011241
  0.2503043391835433  0.9211390097703037  0.5600943128988760
  0.2867459467903188  0.8577894597081225  0.3190656070686053
  0.1596473171517658  0.7479075936803560  0.3147491852285604
  0.2603026564274664  0.8068854562160367  0.0559172684091678
  0.3781626927101840  0.6550859486917915  0.0628419457172882
  0.0039515725912267  0.6696660096269369  0.0623351310448435
  0.4979041915397531  0.9096436599472959  0.0647491338708548
  0.1077933631243191  0.5367502552223300  0.0690655624011604
  0.3288622890388631  0.9996951013303033  0.1899056661241616
  0.4431122543801252  0.9896970911830891  0.1940826088859069
  0.0949137494338892  0.8718323221292401  0.1871584704150031
  0.0803350386370951  0.7460533141974927  0.1876646359833778
  0.3403526828482377  0.7520924063196439  0.1852508147714395
  0.2132540532096812  0.6422105402918703  0.1809343929313947
  0.2496956608164567  0.5788609902296962  0.4399056871011240
  0.2396973435725336  0.6931145437839596  0.4440827315908323
  0.1218373072898160  0.8449140513082085  0.4371580542827118
  0.4960484274087732  0.8303339903730594  0.4376648689551565
  0.0020958084602505  0.5903563400527005  0.4352508661291452
  0.3922066368756810  0.9632497447776699  0.4309344375988431
  0.1711377109611405  0.5003048986696967  0.3100943338758384
  0.0568877456198749  0.5103029088169109  0.3059173911140931
  0.4050862505661073  0.6281676778707599  0.3128415295849969
  0.4196649613629049  0.7539466858025072  0.3123353640166222
  0.6596473171517659  0.7479075936803560  0.8147491852285604
  0.7867459467903188  0.8577894597081225  0.8190656070686053
