c2-c-150gpa                             
   1.00000000000000     
     3.1116076124254421    0.0000000000000000    0.0000000000000000
    -1.5527421582049132    2.6964929407294851    0.0000000000000000
     0.0000000000000000    0.0000000000000000    5.5485969997892868
   H 
    24
Direct
  0.5006086783670867  0.8422780195406077  0.1201886257977520
  0.5206053128549328  0.6137709124320736  0.1118345368183356
  0.7563253854203680  0.3101718973835830  0.1256838914345764
  0.0079031451824534  0.3393320192538738  0.1246702620896869
  0.9958083830795061  0.8192873198945918  0.1294982677417096
  0.2155867262486382  0.0735005104446600  0.1381311248023209
  0.6577245780777261  0.9993902026606065  0.3798113322483232
  0.8862245087602503  0.9793941823661783  0.3881652177718138
  0.1898274988677784  0.7436646442584802  0.3743169408300062
  0.1606700772741902  0.4921066283949855  0.3753292719667556
  0.6807053656964754  0.5041848126392878  0.3705016295428791
  0.4265081064193623  0.2844210805837406  0.3618687858627894
  0.4993913216329133  0.1577219804593923  0.8798113742022480
  0.4793946871450672  0.3862290875679193  0.8881654631816644
  0.2436746145796320  0.6898281026164170  0.8743161085654236
  0.9920968548175466  0.6606679807461191  0.8753297379103131
  0.0041916169205010  0.1807126801054011  0.8705017322582904
  0.7844132737513618  0.9264994895553400  0.8618688751976862
  0.3422754219222810  0.0006097973393935  0.6201886677516768
  0.1137754912397497  0.0206058176338217  0.6118347822281862
  0.8101725011322145  0.2563353557415198  0.6256830591699938
  0.8393299227258098  0.5078933716050145  0.6246707280332444
  0.3192946343035317  0.4958151873607122  0.6294983704571209
  0.5734918935806377  0.7155789194162452  0.6381312141372106
 
  0.00000000E+00  0.00000000E+00  0.00000000E+00
  0.00000000E+00  0.00000000E+00  0.00000000E+00
  0.00000000E+00  0.00000000E+00  0.00000000E+00
  0.00000000E+00  0.00000000E+00  0.00000000E+00
  0.00000000E+00  0.00000000E+00  0.00000000E+00
  0.00000000E+00  0.00000000E+00  0.00000000E+00
  0.00000000E+00  0.00000000E+00  0.00000000E+00
  0.00000000E+00  0.00000000E+00  0.00000000E+00
  0.00000000E+00  0.00000000E+00  0.00000000E+00
  0.00000000E+00  0.00000000E+00  0.00000000E+00
  0.00000000E+00  0.00000000E+00  0.00000000E+00
  0.00000000E+00  0.00000000E+00  0.00000000E+00
  0.00000000E+00  0.00000000E+00  0.00000000E+00
  0.00000000E+00  0.00000000E+00  0.00000000E+00
  0.00000000E+00  0.00000000E+00  0.00000000E+00
  0.00000000E+00  0.00000000E+00  0.00000000E+00
  0.00000000E+00  0.00000000E+00  0.00000000E+00
  0.00000000E+00  0.00000000E+00  0.00000000E+00
  0.00000000E+00  0.00000000E+00  0.00000000E+00
  0.00000000E+00  0.00000000E+00  0.00000000E+00
  0.00000000E+00  0.00000000E+00  0.00000000E+00
  0.00000000E+00  0.00000000E+00  0.00000000E+00
  0.00000000E+00  0.00000000E+00  0.00000000E+00
  0.00000000E+00  0.00000000E+00  0.00000000E+00
